instances/p1/p1_4_20-4.dzn
Alphabet = {A,C,G,T};
ns = 4;
nc = 20;
neighbours = [| I(A),I(C),I(A),I(A),I(C),I(A),I(A),I(A),I(A),I(A),I(A),I(A),I(A),I(C),I(C),I(C),I(A),I(A),I(A),I(A) | I(C),I(A),I(A),I(A),I(C),I(A),I(A),I(A),I(A),I(A),I(A),I(A),I(C),I(G),I(C),I(A),I(A),I(A),I(A),I(A) | I(A),I(A),I(A),I(A),I(G),I(A),I(C),I(A),I(A),I(A),I(A),I(A),I(A),I(A),I(C),I(C),I(C),I(C),I(G),I(A) | I(A),I(G),I(C),I(A),I(C),I(A),I(A),I(A),I(C),I(C),I(A),I(A),I(A),I(A),I(A),I(A),I(C),I(A),I(C),I(A) |];
