instances/p1/p1_4_20-4.txt
{
	"num_strings": 4,
	"alphabet": "ACGT",
	"strings": [
		"ACAACAAAAAAAACCCAAAA",
		"CAAACAAAAAAACGCAAAAA",
		"AAAAGACAAAAAAACCCCGA",
		"AGCACAAACCAAAAAACACA"
	],
	"str_length":[20,20,20,20]
}